c User generated cnf file
p cnf 15 14
13 -13 4 0 
6 10 -4 0 
14 4 -4 0 
12 -10 6 0 
10 12 -11 0 
12 -14 11 0 
8 -14 6 0 
5 -5 7 0 
12 -11 5 0 
13 -8 1 0 
8 -15 11 0 
10 2 -12 0 
2 6 -14 0 
8 -5 14 0 
